52404.69,52.76,63.98
42707.57,64.73,78.5
45280.14,61.06,74.04
41168.88,67.15,81.43
43351.05,63.77,77.34
46473.9,59.49,72.14
41926.57,65.94,79.96
42105.32,65.66,79.62
39334.64,70.28,85.23
46399.13,59.58,72.26
41732.42,66.25,80.34
41135.96,67.21,81.5
40073.97,68.99,83.66
42900.3,64.44,78.15
41019.42,67.4,81.73
39231.45,70.47,85.46
43360.26,63.76,77.32
44588.67,62.0,75.19
39849.66,69.37,84.13
39780.65,69.5,84.28
